c Output_time 26.03.2020 18:15:12_+0100 1585242912010170487
c ** Program information **
c program_name                          "QBRG_debug"
c version                               "0.3.20"
c date                                  "25.3.2020"
c gid_id                                "673970833836058123f633335630c185360d632e"
c author                                "Oliver Kullmann"
c url                                   "https://github.com/OKullmann/oklibrary/blob/master/Satisfiability/Transformers/Generators/Random/QBRG.cpp"
c ** Machine information **
c machine_name                          "chyna-Lenovo-G50-70"
c bogomips                              3791.08
c ** Compilation information **
c compiler_version                      "g++ 7.5.0"
c compilation_date                      "Mar_26_2020 11:16:30"
c compilation_options                   "--std=c++17 -pedantic -fmax-errors=5 -Wall -Wextra -g -D_GLIBCXX_DEBUG"
c NDEBUG                                0
c OPTIMIZE                              0
c ** Parameters **
c command-line                          "./QBRG_debug" "a40 e40 a40 40" "223*1,1|2-2,1|3-3,1|4-4,1" "" "1,t" ""
c output                                "QuBlRaGe_160_223_1585242912009993311.qdimacs"
c options                               "filtered,renamed"
c num_quantifier_blocks                 4
c  quantifier_blocks                    1:a1-40 2:e41-80 3:a81-120 4:e121-160
c num_clause-blocks                     1
c  clause-blocks                        223 * {1-40,1,1/2} | {41-80,1,1/2} | {81-120,1,1/2} | {121-160,1,1/2}
c num_e-seeds                           37+2=39
c  e-seeds                              1 0 1 0 5 160 2 40 0 40 1 40 0 40 1 223 4 1 1 1 1 2 2 2 1 1 2 3 3 1 1 2 4 4 1 1 2 1 1585242912009992716
p cnf 159 223
a 1 2 3 4 5 6 7 8 9 10 11 12 13 14 15 16 17 18 19 20 21 22 23 24 25 26 27 28 29 30 31 32 33 34 35 36 37 38 39 40 0
e 41 42 43 44 45 46 47 48 49 50 51 52 53 54 55 56 57 58 59 60 61 62 63 64 65 66 67 68 69 70 71 72 73 74 75 76 77 78 79 0
a 80 81 82 83 84 85 86 87 88 89 90 91 92 93 94 95 96 97 98 99 100 101 102 103 104 105 106 107 108 109 110 111 112 113 114 115 116 117 118 119 0
e 120 121 122 123 124 125 126 127 128 129 130 131 132 133 134 135 136 137 138 139 140 141 142 143 144 145 146 147 148 149 150 151 152 153 154 155 156 157 158 159 0
-17 -55 98 -120 0
-18 43 -105 -120 0
8 -66 -114 -120 0
15 78 119 -120 0
-37 63 94 -121 0
7 65 95 -121 0
-18 66 111 -121 0
16 -53 -86 121 0
4 -64 100 121 0
30 -64 105 121 0
33 -65 -81 -122 0
-20 -53 87 -122 0
19 -41 99 -122 0
10 -57 96 122 0
17 -79 -104 122 0
-1 50 -118 122 0
15 -56 -82 -123 0
16 64 -88 -123 0
-27 54 82 123 0
22 -44 88 123 0
29 78 -112 123 0
12 -64 105 -124 0
-20 52 -88 124 0
-12 61 -99 124 0
21 66 -107 124 0
-35 49 109 124 0
-24 72 -101 -125 0
6 -48 102 -125 0
-14 54 108 -125 0
6 69 -110 -125 0
18 76 115 -125 0
40 -43 91 125 0
-17 -41 -119 125 0
-33 50 119 -126 0
7 -76 94 126 0
37 43 -97 126 0
5 -55 97 126 0
21 -50 -117 126 0
40 -65 -119 126 0
-29 -65 107 -127 0
23 -64 -110 -127 0
21 -47 -85 127 0
-13 75 89 127 0
-10 -65 -102 127 0
-4 -60 -117 -128 0
-13 47 105 128 0
-40 -66 -112 128 0
-7 44 102 -129 0
-25 -79 114 -129 0
-35 59 116 -129 0
24 -64 112 129 0
11 54 -115 129 0
34 78 116 129 0
-26 67 -118 129 0
8 69 119 129 0
-38 78 80 -130 0
-33 -62 85 -130 0
39 45 -93 -130 0
17 -69 -110 -130 0
1 70 -85 130 0
19 43 90 130 0
21 -53 -99 -131 0
-39 65 -100 131 0
28 -59 -80 -132 0
-21 -58 87 132 0
3 48 -101 132 0
32 56 -112 132 0
4 43 -82 -133 0
-21 62 86 -133 0
7 -76 91 -133 0
-29 -62 113 -133 0
2 44 -88 133 0
15 45 109 133 0
-14 -53 105 -134 0
-15 74 -82 134 0
-34 -79 83 134 0
26 61 96 134 0
-22 46 -99 134 0
12 -41 112 134 0
4 58 -96 -135 0
22 -47 103 -135 0
-36 -53 115 -135 0
37 44 -83 135 0
10 -60 -94 135 0
11 46 -115 135 0
-33 73 89 -136 0
31 79 93 -136 0
-30 42 100 -136 0
16 70 -111 -136 0
5 -44 86 136 0
27 -56 -88 136 0
31 -52 88 136 0
39 -77 -117 136 0
29 -59 82 137 0
-36 68 -90 137 0
21 -52 -99 137 0
-10 42 119 137 0
-8 64 -89 -138 0
-13 -68 -117 -138 0
35 62 87 138 0
9 -43 93 138 0
19 -43 96 138 0
23 50 -97 138 0
-8 -48 81 -139 0
-22 45 -97 -139 0
-26 -76 103 -139 0
2 -78 -101 139 0
-10 -63 -107 139 0
10 -61 108 139 0
24 77 -80 -140 0
-6 -60 96 -140 0
24 -66 102 -140 0
11 -64 115 -140 0
-23 -78 -92 140 0
-21 64 101 140 0
-7 54 119 140 0
-32 70 -88 -141 0
30 -47 -94 -141 0
-19 73 99 -141 0
-11 59 118 -141 0
-13 47 -91 141 0
15 72 108 141 0
-32 -67 114 141 0
33 74 107 -142 0
-36 -43 93 142 0
14 53 80 -143 0
-32 -78 -112 -143 0
19 -58 83 143 0
32 -56 89 143 0
-19 71 -91 143 0
25 -76 108 143 0
5 -69 -82 -144 0
29 54 111 -144 0
35 -47 87 144 0
12 79 103 144 0
-40 -43 105 144 0
29 -77 -97 -145 0
34 -43 -83 145 0
36 -78 -84 145 0
19 -67 84 145 0
-13 -65 -96 145 0
-26 -61 116 145 0
-7 -52 83 -146 0
5 -54 110 -146 0
4 -56 -83 146 0
6 77 96 146 0
20 60 106 146 0
-27 63 109 146 0
-3 50 115 146 0
20 -75 106 -147 0
29 67 -107 -147 0
-39 46 -85 147 0
23 71 -86 147 0
-27 47 106 147 0
3 -59 -85 -148 0
-37 71 -104 -148 0
-28 -71 -108 148 0
14 67 -117 148 0
-28 75 -83 -149 0
-9 -76 -115 -149 0
18 45 -116 -149 0
11 44 -83 149 0
4 -57 85 149 0
-13 69 -91 149 0
-1 63 101 149 0
38 67 -80 150 0
40 -54 81 150 0
-40 -74 82 150 0
-26 70 -91 150 0
36 -47 101 150 0
38 50 -117 150 0
-35 45 84 -151 0
25 56 -89 -151 0
19 -48 -91 151 0
-17 -60 103 151 0
-26 -68 -106 -152 0
-20 -50 107 -152 0
-2 -61 -82 152 0
-21 -63 88 152 0
38 -57 -95 152 0
-19 56 -97 152 0
-23 67 99 -153 0
-17 -73 -114 -153 0
-36 51 114 -153 0
-23 -45 -85 153 0
23 -42 86 153 0
-38 75 -85 -154 0
11 78 86 -154 0
-22 -67 97 -154 0
17 -70 -102 -154 0
4 -72 -85 154 0
-21 -63 87 154 0
26 74 89 154 0
-14 70 109 154 0
28 73 -115 154 0
-40 56 108 -155 0
24 60 111 -155 0
1 -58 108 155 0
8 -66 -82 -156 0
17 72 -98 -156 0
-30 41 -80 156 0
-24 -58 111 156 0
-39 -64 115 156 0
-25 -60 102 -157 0
-37 62 -105 -157 0
18 -78 116 -157 0
38 -56 -118 -157 0
-31 66 -93 157 0
15 -72 -112 157 0
-15 78 -84 -158 0
15 50 -105 -158 0
10 -71 -119 -158 0
38 -61 91 158 0
-33 -70 93 158 0
4 -66 95 158 0
34 77 -108 158 0
-7 66 -110 158 0
11 79 -116 158 0
9 -50 103 -159 0
-25 -54 -111 -159 0
3 -72 -88 159 0
19 -67 95 159 0
-21 -49 115 159 0
